NAME : kroE100-C-5-1-a__bsl_same_priority_ls__27028.tour
COMMENT : Length = 27028.000
COMMENT : Generated by compare_sota_instances.py for bsl_same_priority_ls
TYPE : TOUR
DIMENSION : 100
TOUR_SECTION
72
89
81
71
61
44
14
52
1
35
40
8
25
54
45
99
17
84
49
56
20
15
23
28
36
95
59
98
32
12
76
7
21
74
83
73
16
79
26
46
3
47
69
51
88
63
58
64
62
50
60
10
80
97
65
57
31
9
96
85
77
37
34
53
78
100
29
24
18
94
19
43
86
48
5
42
90
30
66
13
75
41
87
67
27
92
82
2
11
4
70
6
55
91
93
39
22
33
38
68
-1
EOF
